param n := 5;
set E := (1,2) (1,3) (1,4) (2,3) (2,5) (3,4) (3,5) (4,5);
param m := 8;
param c := 
1	2
2	2
3	2
4	2
5	2
6	2
7	2
8	2;
param a := # i,j,k value
1 2 1 	1
1 3 2	1
1 4 3	1
2 3 4	1
2 5 5	1
3 4 6	1
3 5 7 	1
4 5 8	1;

param b := 18;
param d := 
1 2 	3
1 3		3
1 4		4
2 3		2
2 5		3
3 4		8
3 5		2
4 5		2;
